(set-info :source |printed by MathSAT|)
(declare-fun call_peterson.ite63 () Int)
(declare-fun call_peterson.x9 () Int)
(declare-fun call_peterson.ite17 () Int)
(declare-fun call_peterson.ite35 () Int)
(declare-fun call_peterson.ite9 () Int)
(declare-fun call_peterson.flby9 () Int)
(declare-fun call_peterson.ite69 () Int)
(declare-fun call_peterson.ite18 () Int)
(declare-fun call_peterson.ite26 () Int)
(declare-fun call_peterson.x13 () Int)
(declare-fun call_peterson.ite52 () Int)
(declare-fun call_peterson.ite21 () Int)
(declare-fun call_peterson.ite24 () Int)
(declare-fun call_peterson.flby4 () Int)
(declare-fun call_peterson.flby12 () Int)
(declare-fun x5 () Int)
(declare-fun call_peterson.ite54 () Int)
(declare-fun x1 () Int)
(declare-fun call_peterson.flby13 () Int)
(declare-fun x8 () Int)
(declare-fun call_peterson.ite3 () Int)
(declare-fun call_peterson.flby11 () Int)
(declare-fun call_peterson.ite42 () Int)
(declare-fun x12 () Int)
(declare-fun call_peterson.ite58 () Int)
(declare-fun call_peterson.ite30 () Int)
(declare-fun call_peterson.flby () Int)
(declare-fun call_peterson.ite67 () Int)
(declare-fun param_e08 () Bool)
(declare-fun call_peterson.ite5 () Int)
(declare-fun call_peterson.ite39 () Int)
(declare-fun call_peterson.x1 () Int)
(declare-fun _OK_ () Bool)
(declare-fun call_peterson.flby3 () Int)
(declare-fun call_peterson.ite13 () Int)
(declare-fun call_peterson.ite12 () Int)
(declare-fun x11 () Int)
(declare-fun call_peterson.ite7 () Int)
(declare-fun call_peterson.ite37 () Int)
(declare-fun call_peterson.x5 () Int)
(declare-fun call_excludes12.excludes () Bool)
(declare-fun call_peterson.ite68 () Int)
(declare-fun call_peterson.ite48 () Int)
(declare-fun call_peterson.ite8 () Int)
(declare-fun x10 () Int)
(declare-fun call_peterson.x8 () Int)
(declare-fun call_peterson.ite14 () Int)
(declare-fun call_peterson.x12 () Int)
(declare-fun call_peterson.ite41 () Int)
(declare-fun call_peterson.flby8 () Int)
(declare-fun x4 () Int)
(declare-fun call_peterson.ite51 () Int)
(declare-fun param_e11 () Bool)
(declare-fun call_peterson.x2 () Int)
(declare-fun param_e04 () Bool)
(declare-fun call_peterson.x11 () Int)
(declare-fun call_peterson.ite4 () Int)
(declare-fun call_peterson.ite15 () Int)
(declare-fun call_peterson.ite60 () Int)
(declare-fun call_peterson.ite34 () Int)
(declare-fun call_peterson.ite31 () Int)
(declare-fun env () Bool)
(declare-fun call_peterson.ite72 () Int)
(declare-fun x7 () Int)
(declare-fun call_peterson.ite10 () Int)
(declare-fun call_peterson.ite65 () Int)
(declare-fun call_peterson.flby5 () Int)
(declare-fun call_peterson.ite38 () Int)
(declare-fun call_peterson.ite20 () Int)
(declare-fun param_e05 () Bool)
(declare-fun call_Sofar.Sofar () Bool)
(declare-fun call_peterson.ite56 () Int)
(declare-fun call_peterson.ite22 () Int)
(declare-fun x0 () Int)
(declare-fun call_peterson.flby14 () Int)
(declare-fun call_peterson.ite61 () Int)
(declare-fun call_peterson.ite33 () Int)
(declare-fun call_peterson.ite43 () Int)
(declare-fun call_peterson.x4 () Int)
(declare-fun x2 () Int)
(declare-fun call_peterson.ite70 () Int)
(declare-fun call_peterson.ite25 () Int)
(declare-fun call_Sofar.flby () Bool)
(declare-fun param_e10 () Bool)
(declare-fun call_peterson.ite23 () Int)
(declare-fun call_peterson.x7 () Int)
(declare-fun param_e06 () Bool)
(declare-fun call_peterson.ite () Int)
(declare-fun call_peterson.ite59 () Int)
(declare-fun param_e03 () Bool)
(declare-fun call_peterson.ite44 () Int)
(declare-fun call_peterson.ite46 () Int)
(declare-fun call_peterson.ite29 () Int)
(declare-fun call_peterson.ite55 () Int)
(declare-fun call_peterson.ite62 () Int)
(declare-fun param_e01 () Bool)
(declare-fun call_peterson.x10 () Int)
(declare-fun param_e02 () Bool)
(declare-fun call_peterson.x0 () Int)
(declare-fun call_peterson.ite57 () Int)
(declare-fun call_peterson.flby2 () Int)
(declare-fun x6 () Int)
(declare-fun call_peterson.ite16 () Int)
(declare-fun call_peterson.ite11 () Int)
(declare-fun call_peterson.flby7 () Int)
(declare-fun call_peterson.ite49 () Int)
(declare-fun call_peterson.ite36 () Int)
(declare-fun call_peterson.ite19 () Int)
(declare-fun call_peterson.ite45 () Int)
(declare-fun call_peterson.ite71 () Int)
(declare-fun x9 () Int)
(declare-fun call_peterson.ite28 () Int)
(declare-fun param_e09 () Bool)
(declare-fun param_e07 () Bool)
(declare-fun call_peterson.ite50 () Int)
(declare-fun x13 () Int)
(declare-fun call_peterson.x3 () Int)
(declare-fun param_e12 () Bool)
(declare-fun call_peterson.flby10 () Int)
(declare-fun call_peterson.ite27 () Int)
(declare-fun call_peterson.ite66 () Int)
(declare-fun call_peterson.ite6 () Int)
(declare-fun call_peterson.ite53 () Int)
(declare-fun call_peterson.flby6 () Int)
(declare-fun call_peterson.x6 () Int)
(declare-fun call_peterson.ite2 () Int)
(declare-fun call_peterson.ite40 () Int)
(declare-fun x3 () Int)
(declare-fun call_peterson.ite32 () Int)
(declare-fun call_peterson.ite64 () Int)
(declare-fun call_peterson.ite47 () Int)
(define-fun .def_2009 () Bool (= call_Sofar.flby call_Sofar.Sofar))
(define-fun .def_1674 () Bool (not param_e02))
(define-fun .def_1632 () Bool (not param_e01))
(define-fun .def_1907 () Bool (and .def_1632 .def_1674))
(define-fun .def_1513 () Bool (not param_e03))
(define-fun .def_1908 () Bool (and .def_1513 .def_1907))
(define-fun .def_1715 () Bool (not param_e04))
(define-fun .def_1909 () Bool (and .def_1715 .def_1908))
(define-fun .def_1520 () Bool (not param_e05))
(define-fun .def_1910 () Bool (and .def_1520 .def_1909))
(define-fun .def_1527 () Bool (not param_e06))
(define-fun .def_1911 () Bool (and .def_1527 .def_1910))
(define-fun .def_1760 () Bool (not param_e07))
(define-fun .def_1912 () Bool (and .def_1760 .def_1911))
(define-fun .def_1549 () Bool (not param_e08))
(define-fun .def_1913 () Bool (and .def_1549 .def_1912))
(define-fun .def_1561 () Bool (not param_e09))
(define-fun .def_1914 () Bool (and .def_1561 .def_1913))
(define-fun .def_1867 () Bool (not param_e10))
(define-fun .def_1915 () Bool (and .def_1867 .def_1914))
(define-fun .def_1506 () Bool (not param_e11))
(define-fun .def_1916 () Bool (and .def_1506 .def_1915))
(define-fun .def_1485 () Bool (not param_e12))
(define-fun .def_1994 () Bool (and .def_1485 .def_1916))
(define-fun .def_1983 () Bool (and param_e01 .def_1674))
(define-fun .def_1984 () Bool (and .def_1513 .def_1983))
(define-fun .def_1985 () Bool (and .def_1715 .def_1984))
(define-fun .def_1986 () Bool (and .def_1520 .def_1985))
(define-fun .def_1987 () Bool (and .def_1527 .def_1986))
(define-fun .def_1988 () Bool (and .def_1760 .def_1987))
(define-fun .def_1989 () Bool (and .def_1549 .def_1988))
(define-fun .def_1990 () Bool (and .def_1561 .def_1989))
(define-fun .def_1991 () Bool (and .def_1867 .def_1990))
(define-fun .def_1992 () Bool (and .def_1506 .def_1991))
(define-fun .def_1993 () Bool (and .def_1485 .def_1992))
(define-fun .def_1995 () Bool (or .def_1993 .def_1994))
(define-fun .def_1972 () Bool (and .def_1632 param_e02))
(define-fun .def_1973 () Bool (and .def_1513 .def_1972))
(define-fun .def_1974 () Bool (and .def_1715 .def_1973))
(define-fun .def_1975 () Bool (and .def_1520 .def_1974))
(define-fun .def_1976 () Bool (and .def_1527 .def_1975))
(define-fun .def_1977 () Bool (and .def_1760 .def_1976))
(define-fun .def_1978 () Bool (and .def_1549 .def_1977))
(define-fun .def_1979 () Bool (and .def_1561 .def_1978))
(define-fun .def_1980 () Bool (and .def_1867 .def_1979))
(define-fun .def_1981 () Bool (and .def_1506 .def_1980))
(define-fun .def_1982 () Bool (and .def_1485 .def_1981))
(define-fun .def_1996 () Bool (or .def_1982 .def_1995))
(define-fun .def_1962 () Bool (and param_e03 .def_1907))
(define-fun .def_1963 () Bool (and .def_1715 .def_1962))
(define-fun .def_1964 () Bool (and .def_1520 .def_1963))
(define-fun .def_1965 () Bool (and .def_1527 .def_1964))
(define-fun .def_1966 () Bool (and .def_1760 .def_1965))
(define-fun .def_1967 () Bool (and .def_1549 .def_1966))
(define-fun .def_1968 () Bool (and .def_1561 .def_1967))
(define-fun .def_1969 () Bool (and .def_1867 .def_1968))
(define-fun .def_1970 () Bool (and .def_1506 .def_1969))
(define-fun .def_1971 () Bool (and .def_1485 .def_1970))
(define-fun .def_1997 () Bool (or .def_1971 .def_1996))
(define-fun .def_1953 () Bool (and param_e04 .def_1908))
(define-fun .def_1954 () Bool (and .def_1520 .def_1953))
(define-fun .def_1955 () Bool (and .def_1527 .def_1954))
(define-fun .def_1956 () Bool (and .def_1760 .def_1955))
(define-fun .def_1957 () Bool (and .def_1549 .def_1956))
(define-fun .def_1958 () Bool (and .def_1561 .def_1957))
(define-fun .def_1959 () Bool (and .def_1867 .def_1958))
(define-fun .def_1960 () Bool (and .def_1506 .def_1959))
(define-fun .def_1961 () Bool (and .def_1485 .def_1960))
(define-fun .def_1998 () Bool (or .def_1961 .def_1997))
(define-fun .def_1945 () Bool (and param_e05 .def_1909))
(define-fun .def_1946 () Bool (and .def_1527 .def_1945))
(define-fun .def_1947 () Bool (and .def_1760 .def_1946))
(define-fun .def_1948 () Bool (and .def_1549 .def_1947))
(define-fun .def_1949 () Bool (and .def_1561 .def_1948))
(define-fun .def_1950 () Bool (and .def_1867 .def_1949))
(define-fun .def_1951 () Bool (and .def_1506 .def_1950))
(define-fun .def_1952 () Bool (and .def_1485 .def_1951))
(define-fun .def_1999 () Bool (or .def_1952 .def_1998))
(define-fun .def_1938 () Bool (and param_e06 .def_1910))
(define-fun .def_1939 () Bool (and .def_1760 .def_1938))
(define-fun .def_1940 () Bool (and .def_1549 .def_1939))
(define-fun .def_1941 () Bool (and .def_1561 .def_1940))
(define-fun .def_1942 () Bool (and .def_1867 .def_1941))
(define-fun .def_1943 () Bool (and .def_1506 .def_1942))
(define-fun .def_1944 () Bool (and .def_1485 .def_1943))
(define-fun .def_2000 () Bool (or .def_1944 .def_1999))
(define-fun .def_1932 () Bool (and param_e07 .def_1911))
(define-fun .def_1933 () Bool (and .def_1549 .def_1932))
(define-fun .def_1934 () Bool (and .def_1561 .def_1933))
(define-fun .def_1935 () Bool (and .def_1867 .def_1934))
(define-fun .def_1936 () Bool (and .def_1506 .def_1935))
(define-fun .def_1937 () Bool (and .def_1485 .def_1936))
(define-fun .def_2001 () Bool (or .def_1937 .def_2000))
(define-fun .def_1927 () Bool (and param_e08 .def_1912))
(define-fun .def_1928 () Bool (and .def_1561 .def_1927))
(define-fun .def_1929 () Bool (and .def_1867 .def_1928))
(define-fun .def_1930 () Bool (and .def_1506 .def_1929))
(define-fun .def_1931 () Bool (and .def_1485 .def_1930))
(define-fun .def_2002 () Bool (or .def_1931 .def_2001))
(define-fun .def_1923 () Bool (and param_e09 .def_1913))
(define-fun .def_1924 () Bool (and .def_1867 .def_1923))
(define-fun .def_1925 () Bool (and .def_1506 .def_1924))
(define-fun .def_1926 () Bool (and .def_1485 .def_1925))
(define-fun .def_2003 () Bool (or .def_1926 .def_2002))
(define-fun .def_1920 () Bool (and param_e10 .def_1914))
(define-fun .def_1921 () Bool (and .def_1506 .def_1920))
(define-fun .def_1922 () Bool (and .def_1485 .def_1921))
(define-fun .def_2004 () Bool (or .def_1922 .def_2003))
(define-fun .def_1918 () Bool (and param_e11 .def_1915))
(define-fun .def_1919 () Bool (and .def_1485 .def_1918))
(define-fun .def_2005 () Bool (or .def_1919 .def_2004))
(define-fun .def_1917 () Bool (and param_e12 .def_1916))
(define-fun .def_2006 () Bool (or .def_1917 .def_2005))
(define-fun .def_2007 () Bool (= call_excludes12.excludes .def_2006))
(define-fun .def_1905 () Bool (= call_peterson.flby14 call_peterson.x13))
(define-fun .def_1903 () Bool (= call_peterson.flby13 call_peterson.x12))
(define-fun .def_1901 () Bool (= call_peterson.flby12 call_peterson.x11))
(define-fun .def_1899 () Bool (= call_peterson.flby11 call_peterson.x10))
(define-fun .def_1897 () Bool (= call_peterson.flby10 call_peterson.x9))
(define-fun .def_1895 () Bool (= call_peterson.flby9 call_peterson.x8))
(define-fun .def_1893 () Bool (= call_peterson.flby8 call_peterson.x7))
(define-fun .def_1891 () Bool (= call_peterson.flby7 call_peterson.x6))
(define-fun .def_1889 () Bool (= call_peterson.flby6 call_peterson.x5))
(define-fun .def_1887 () Bool (= call_peterson.flby5 call_peterson.x4))
(define-fun .def_1885 () Bool (= call_peterson.flby4 call_peterson.x3))
(define-fun .def_1883 () Bool (= call_peterson.flby3 call_peterson.x2))
(define-fun .def_1881 () Bool (= call_peterson.flby2 call_peterson.x1))
(define-fun .def_1879 () Bool (= call_peterson.flby call_peterson.x0))
(define-fun .def_1875 () Bool (= call_peterson.ite71 call_peterson.ite72))
(define-fun .def_1876 () Bool (or param_e10 .def_1875))
(define-fun .def_1872 () Bool (= call_peterson.ite67 call_peterson.ite72))
(define-fun .def_1873 () Bool (or .def_1867 .def_1872))
(define-fun .def_1866 () Bool (= call_peterson.ite64 call_peterson.ite61))
(define-fun .def_1868 () Bool (or .def_1866 .def_1867))
(define-fun .def_1862 () Bool (= call_peterson.ite63 call_peterson.ite64))
(define-fun .def_1864 () Bool (or .def_1862 param_e10))
(define-fun .def_1869 () Bool (and .def_1864 .def_1868))
(define-fun .def_1874 () Bool (and .def_1869 .def_1873))
(define-fun .def_1877 () Bool (and .def_1874 .def_1876))
(define-fun .def_1858 () Bool (= call_peterson.ite65 call_peterson.ite60))
(define-fun .def_1859 () Bool (or .def_1561 .def_1858))
(define-fun .def_1855 () Bool (= call_peterson.ite65 call_peterson.ite64))
(define-fun .def_1856 () Bool (or param_e09 .def_1855))
(define-fun .def_1860 () Bool (and .def_1856 .def_1859))
(define-fun .def_1852 () Bool (= env call_Sofar.Sofar))
(define-fun .def_1849 () Bool (= x13 call_peterson.x13))
(define-fun .def_1845 () Bool (= x12 call_peterson.x12))
(define-fun .def_1839 () Bool (= call_peterson.ite66 call_peterson.ite65))
(define-fun .def_1840 () Bool (or param_e08 .def_1839))
(define-fun .def_1835 () Bool (= call_peterson.ite59 call_peterson.ite66))
(define-fun .def_1836 () Bool (or .def_1549 .def_1835))
(define-fun .def_1830 () Bool (= call_peterson.ite57 call_peterson.ite54))
(define-fun .def_1831 () Bool (or .def_1549 .def_1830))
(define-fun .def_1827 () Bool (= call_peterson.ite56 call_peterson.ite57))
(define-fun .def_1828 () Bool (or param_e08 .def_1827))
(define-fun .def_1832 () Bool (and .def_1828 .def_1831))
(define-fun .def_1837 () Bool (and .def_1832 .def_1836))
(define-fun .def_1841 () Bool (and .def_1837 .def_1840))
(define-fun .def_1825 () Bool (= x11 call_peterson.x11))
(define-fun .def_1821 () Bool (= x10 call_peterson.x10))
(define-fun .def_1817 () Bool (= x9 call_peterson.x9))
(define-fun .def_1813 () Bool (= x8 call_peterson.x8))
(define-fun .def_1809 () Bool (= x7 call_peterson.x7))
(define-fun .def_1805 () Bool (= x6 call_peterson.x6))
(define-fun .def_1801 () Bool (= x5 call_peterson.x5))
(define-fun .def_1797 () Bool (= x4 call_peterson.x4))
(define-fun .def_1793 () Bool (= x3 call_peterson.x3))
(define-fun .def_1790 () Bool (= x2 call_peterson.x2))
(define-fun .def_1785 () Bool (= call_peterson.ite58 call_peterson.ite57))
(define-fun .def_1786 () Bool (or param_e07 .def_1785))
(define-fun .def_1781 () Bool (= call_peterson.ite53 call_peterson.ite58))
(define-fun .def_1782 () Bool (or .def_1760 .def_1781))
(define-fun .def_1776 () Bool (= call_peterson.ite51 call_peterson.ite52))
(define-fun .def_1777 () Bool (or param_e07 .def_1776))
(define-fun .def_1773 () Bool (= call_peterson.ite49 call_peterson.ite52))
(define-fun .def_1774 () Bool (or .def_1760 .def_1773))
(define-fun .def_1768 () Bool (= call_peterson.ite47 call_peterson.ite48))
(define-fun .def_1769 () Bool (or param_e07 .def_1768))
(define-fun .def_1765 () Bool (= call_peterson.ite45 call_peterson.ite48))
(define-fun .def_1766 () Bool (or .def_1760 .def_1765))
(define-fun .def_1759 () Bool (= call_peterson.ite44 call_peterson.ite41))
(define-fun .def_1761 () Bool (or .def_1759 .def_1760))
(define-fun .def_1755 () Bool (= call_peterson.ite43 call_peterson.ite44))
(define-fun .def_1757 () Bool (or .def_1755 param_e07))
(define-fun .def_1762 () Bool (and .def_1757 .def_1761))
(define-fun .def_1767 () Bool (and .def_1762 .def_1766))
(define-fun .def_1770 () Bool (and .def_1767 .def_1769))
(define-fun .def_1775 () Bool (and .def_1770 .def_1774))
(define-fun .def_1778 () Bool (and .def_1775 .def_1777))
(define-fun .def_1783 () Bool (and .def_1778 .def_1782))
(define-fun .def_1787 () Bool (and .def_1783 .def_1786))
(define-fun .def_1752 () Bool (= x1 call_peterson.x1))
(define-fun .def_1749 () Bool (= x0 call_peterson.x0))
(define-fun .def_1743 () Bool (<= 0 x3))
(define-fun .def_1741 () Bool (<= 0 x2))
(define-fun .def_1739 () Bool (<= 0 x1))
(define-fun .def_1738 () Bool (<= 0 x0))
(define-fun .def_1740 () Bool (and .def_1738 .def_1739))
(define-fun .def_1742 () Bool (and .def_1740 .def_1741))
(define-fun .def_1744 () Bool (and .def_1742 .def_1743))
(define-fun .def_1737 () Bool (not env))
(define-fun .def_1745 () Bool (or .def_1737 .def_1744))
(define-fun .def_1746 () Bool (= _OK_ .def_1745))
(define-fun .def_1731 () Bool (= call_peterson.ite23 call_peterson.ite20))
(define-fun .def_1732 () Bool (or .def_1520 .def_1731))
(define-fun .def_1728 () Bool (= call_peterson.ite22 call_peterson.ite23))
(define-fun .def_1729 () Bool (or param_e05 .def_1728))
(define-fun .def_1733 () Bool (and .def_1729 .def_1732))
(define-fun .def_1724 () Bool (= call_peterson.ite24 call_peterson.ite23))
(define-fun .def_1725 () Bool (or param_e04 .def_1724))
(define-fun .def_1720 () Bool (= call_peterson.ite19 call_peterson.ite24))
(define-fun .def_1721 () Bool (or .def_1715 .def_1720))
(define-fun .def_1714 () Bool (= call_peterson.ite16 call_peterson.ite13))
(define-fun .def_1716 () Bool (or .def_1714 .def_1715))
(define-fun .def_1710 () Bool (= call_peterson.ite15 call_peterson.ite16))
(define-fun .def_1712 () Bool (or .def_1710 param_e04))
(define-fun .def_1717 () Bool (and .def_1712 .def_1716))
(define-fun .def_1722 () Bool (and .def_1717 .def_1721))
(define-fun .def_1726 () Bool (and .def_1722 .def_1725))
(define-fun .def_1706 () Bool (= call_peterson.ite17 call_peterson.ite12))
(define-fun .def_1707 () Bool (or .def_1513 .def_1706))
(define-fun .def_1703 () Bool (= call_peterson.ite17 call_peterson.ite16))
(define-fun .def_1704 () Bool (or param_e03 .def_1703))
(define-fun .def_1708 () Bool (and .def_1704 .def_1707))
(define-fun .def_1698 () Bool (= call_peterson.ite35 call_peterson.ite36))
(define-fun .def_1699 () Bool (or param_e02 .def_1698))
(define-fun .def_1695 () Bool (= call_peterson.ite33 call_peterson.ite36))
(define-fun .def_1696 () Bool (or .def_1674 .def_1695))
(define-fun .def_1690 () Bool (= call_peterson.ite18 call_peterson.ite17))
(define-fun .def_1691 () Bool (or param_e02 .def_1690))
(define-fun .def_1686 () Bool (= call_peterson.ite11 call_peterson.ite18))
(define-fun .def_1687 () Bool (or .def_1674 .def_1686))
(define-fun .def_1681 () Bool (= call_peterson.ite8 call_peterson.ite9))
(define-fun .def_1682 () Bool (or param_e02 .def_1681))
(define-fun .def_1678 () Bool (= call_peterson.ite9 call_peterson.ite6))
(define-fun .def_1679 () Bool (or .def_1674 .def_1678))
(define-fun .def_1673 () Bool (= call_peterson.ite40 call_peterson.ite37))
(define-fun .def_1675 () Bool (or .def_1673 .def_1674))
(define-fun .def_1669 () Bool (= call_peterson.ite39 call_peterson.ite40))
(define-fun .def_1671 () Bool (or .def_1669 param_e02))
(define-fun .def_1676 () Bool (and .def_1671 .def_1675))
(define-fun .def_1680 () Bool (and .def_1676 .def_1679))
(define-fun .def_1683 () Bool (and .def_1680 .def_1682))
(define-fun .def_1688 () Bool (and .def_1683 .def_1687))
(define-fun .def_1692 () Bool (and .def_1688 .def_1691))
(define-fun .def_1697 () Bool (and .def_1692 .def_1696))
(define-fun .def_1700 () Bool (and .def_1697 .def_1699))
(define-fun .def_1664 () Bool (= call_peterson.ite71 call_peterson.ite68))
(define-fun .def_1665 () Bool (or .def_1506 .def_1664))
(define-fun .def_1661 () Bool (= call_peterson.ite70 call_peterson.ite71))
(define-fun .def_1662 () Bool (or param_e11 .def_1661))
(define-fun .def_1666 () Bool (and .def_1662 .def_1665))
(define-fun .def_1657 () Bool (= call_peterson.ite31 call_peterson.ite32))
(define-fun .def_1658 () Bool (or param_e01 .def_1657))
(define-fun .def_1654 () Bool (= call_peterson.ite29 call_peterson.ite32))
(define-fun .def_1655 () Bool (or .def_1632 .def_1654))
(define-fun .def_1649 () Bool (= call_peterson.ite27 call_peterson.ite28))
(define-fun .def_1650 () Bool (or param_e01 .def_1649))
(define-fun .def_1646 () Bool (= call_peterson.ite25 call_peterson.ite28))
(define-fun .def_1647 () Bool (or .def_1632 .def_1646))
(define-fun .def_1641 () Bool (= call_peterson.ite10 call_peterson.ite9))
(define-fun .def_1642 () Bool (or param_e01 .def_1641))
(define-fun .def_1637 () Bool (= call_peterson.ite5 call_peterson.ite10))
(define-fun .def_1638 () Bool (or .def_1632 .def_1637))
(define-fun .def_1631 () Bool (= call_peterson.ite4 call_peterson.ite))
(define-fun .def_1633 () Bool (or .def_1631 .def_1632))
(define-fun .def_1627 () Bool (= call_peterson.ite3 call_peterson.ite4))
(define-fun .def_1629 () Bool (or .def_1627 param_e01))
(define-fun .def_1634 () Bool (and .def_1629 .def_1633))
(define-fun .def_1639 () Bool (and .def_1634 .def_1638))
(define-fun .def_1643 () Bool (and .def_1639 .def_1642))
(define-fun .def_1648 () Bool (and .def_1643 .def_1647))
(define-fun .def_1651 () Bool (and .def_1648 .def_1650))
(define-fun .def_1656 () Bool (and .def_1651 .def_1655))
(define-fun .def_1659 () Bool (and .def_1656 .def_1658))
(define-fun .def_1667 () Bool (and .def_1659 .def_1666))
(define-fun .def_1701 () Bool (and .def_1667 .def_1700))
(define-fun .def_1709 () Bool (and .def_1701 .def_1708))
(define-fun .def_1727 () Bool (and .def_1709 .def_1726))
(define-fun .def_1734 () Bool (and .def_1727 .def_1733))
(define-fun .def_1747 () Bool (and .def_1734 .def_1746))
(define-fun .def_1750 () Bool (and .def_1747 .def_1749))
(define-fun .def_1753 () Bool (and .def_1750 .def_1752))
(define-fun .def_1788 () Bool (and .def_1753 .def_1787))
(define-fun .def_1791 () Bool (and .def_1788 .def_1790))
(define-fun .def_1794 () Bool (and .def_1791 .def_1793))
(define-fun .def_1798 () Bool (and .def_1794 .def_1797))
(define-fun .def_1802 () Bool (and .def_1798 .def_1801))
(define-fun .def_1806 () Bool (and .def_1802 .def_1805))
(define-fun .def_1810 () Bool (and .def_1806 .def_1809))
(define-fun .def_1814 () Bool (and .def_1810 .def_1813))
(define-fun .def_1818 () Bool (and .def_1814 .def_1817))
(define-fun .def_1822 () Bool (and .def_1818 .def_1821))
(define-fun .def_1826 () Bool (and .def_1822 .def_1825))
(define-fun .def_1842 () Bool (and .def_1826 .def_1841))
(define-fun .def_1846 () Bool (and .def_1842 .def_1845))
(define-fun .def_1850 () Bool (and .def_1846 .def_1849))
(define-fun .def_1853 () Bool (and .def_1850 .def_1852))
(define-fun .def_1861 () Bool (and .def_1853 .def_1860))
(define-fun .def_1878 () Bool (and .def_1861 .def_1877))
(define-fun .def_1880 () Bool (and .def_1878 .def_1879))
(define-fun .def_1882 () Bool (and .def_1880 .def_1881))
(define-fun .def_1884 () Bool (and .def_1882 .def_1883))
(define-fun .def_1886 () Bool (and .def_1884 .def_1885))
(define-fun .def_1888 () Bool (and .def_1886 .def_1887))
(define-fun .def_1890 () Bool (and .def_1888 .def_1889))
(define-fun .def_1892 () Bool (and .def_1890 .def_1891))
(define-fun .def_1894 () Bool (and .def_1892 .def_1893))
(define-fun .def_1896 () Bool (and .def_1894 .def_1895))
(define-fun .def_1898 () Bool (and .def_1896 .def_1897))
(define-fun .def_1900 () Bool (and .def_1898 .def_1899))
(define-fun .def_1902 () Bool (and .def_1900 .def_1901))
(define-fun .def_1904 () Bool (and .def_1902 .def_1903))
(define-fun .def_1906 () Bool (and .def_1904 .def_1905))
(define-fun .def_2008 () Bool (and .def_1906 .def_2007))
(define-fun .def_2010 () Bool (and .def_2008 .def_2009))
(define-fun .def_1620 () Bool (<= 32767 x3))
(define-fun .def_1621 () Bool (not .def_1620))
(define-fun .def_1616 () Bool (<= 32767 x2))
(define-fun .def_1617 () Bool (not .def_1616))
(define-fun .def_1612 () Bool (<= 32767 x1))
(define-fun .def_1613 () Bool (not .def_1612))
(define-fun .def_1607 () Bool (<= 32767 x0))
(define-fun .def_1608 () Bool (not .def_1607))
(define-fun .def_1610 () Bool (and .def_1608 call_excludes12.excludes))
(define-fun .def_1614 () Bool (and .def_1610 .def_1613))
(define-fun .def_1618 () Bool (and .def_1614 .def_1617))
(define-fun .def_1622 () Bool (and .def_1618 .def_1621))
(define-fun .def_1624 () Bool (= .def_1622 call_Sofar.flby))
(define-fun .def_1604 () Bool (= call_peterson.flby6 0))
(define-fun .def_1601 () Bool (= call_peterson.flby5 1))
(define-fun .def_1598 () Bool (= call_peterson.flby4 0))
(define-fun .def_1595 () Bool (= call_peterson.flby3 0))
(define-fun .def_1592 () Bool (= call_peterson.flby2 0))
(define-fun .def_1589 () Bool (= call_peterson.flby 1))
(define-fun .def_1586 () Bool (= call_peterson.flby14 0))
(define-fun .def_1583 () Bool (= call_peterson.flby13 0))
(define-fun .def_1580 () Bool (= call_peterson.flby12 0))
(define-fun .def_1577 () Bool (= call_peterson.flby11 1))
(define-fun .def_1574 () Bool (= call_peterson.flby10 1))
(define-fun .def_1571 () Bool (= call_peterson.flby9 0))
(define-fun .def_1568 () Bool (= call_peterson.flby8 1))
(define-fun .def_1565 () Bool (= call_peterson.flby7 0))
(define-fun .def_1559 () Bool (= call_peterson.ite55 call_peterson.ite56))
(define-fun .def_1562 () Bool (or .def_1559 .def_1561))
(define-fun .def_1553 () Bool (= call_peterson.ite38 call_peterson.ite39))
(define-fun .def_1554 () Bool (or .def_1549 .def_1553))
(define-fun .def_1547 () Bool (= call_peterson.ite34 call_peterson.ite35))
(define-fun .def_1550 () Bool (or .def_1547 .def_1549))
(define-fun .def_1555 () Bool (and .def_1550 .def_1554))
(define-fun .def_1541 () Bool (= call_peterson.ite30 call_peterson.ite31))
(define-fun .def_1542 () Bool (or .def_1527 .def_1541))
(define-fun .def_1536 () Bool (= call_peterson.ite26 call_peterson.ite27))
(define-fun .def_1537 () Bool (or .def_1527 .def_1536))
(define-fun .def_1531 () Bool (= call_peterson.ite2 call_peterson.ite3))
(define-fun .def_1532 () Bool (or .def_1527 .def_1531))
(define-fun .def_1525 () Bool (= call_peterson.ite21 call_peterson.ite22))
(define-fun .def_1528 () Bool (or .def_1525 .def_1527))
(define-fun .def_1533 () Bool (and .def_1528 .def_1532))
(define-fun .def_1538 () Bool (and .def_1533 .def_1537))
(define-fun .def_1543 () Bool (and .def_1538 .def_1542))
(define-fun .def_1518 () Bool (= call_peterson.ite14 call_peterson.ite15))
(define-fun .def_1521 () Bool (or .def_1518 .def_1520))
(define-fun .def_1511 () Bool (= call_peterson.ite7 call_peterson.ite8))
(define-fun .def_1514 () Bool (or .def_1511 .def_1513))
(define-fun .def_1504 () Bool (= call_peterson.ite62 call_peterson.ite63))
(define-fun .def_1507 () Bool (or .def_1504 .def_1506))
(define-fun .def_1499 () Bool (= call_peterson.ite69 call_peterson.ite70))
(define-fun .def_1500 () Bool (or .def_1485 .def_1499))
(define-fun .def_1494 () Bool (= call_peterson.ite50 call_peterson.ite51))
(define-fun .def_1495 () Bool (or .def_1485 .def_1494))
(define-fun .def_1489 () Bool (= call_peterson.ite42 call_peterson.ite43))
(define-fun .def_1490 () Bool (or .def_1485 .def_1489))
(define-fun .def_1483 () Bool (= call_peterson.ite46 call_peterson.ite47))
(define-fun .def_1486 () Bool (or .def_1483 .def_1485))
(define-fun .def_1491 () Bool (and .def_1486 .def_1490))
(define-fun .def_1496 () Bool (and .def_1491 .def_1495))
(define-fun .def_1501 () Bool (and .def_1496 .def_1500))
(define-fun .def_1508 () Bool (and .def_1501 .def_1507))
(define-fun .def_1515 () Bool (and .def_1508 .def_1514))
(define-fun .def_1522 () Bool (and .def_1515 .def_1521))
(define-fun .def_1544 () Bool (and .def_1522 .def_1543))
(define-fun .def_1556 () Bool (and .def_1544 .def_1555))
(define-fun .def_1563 () Bool (and .def_1556 .def_1562))
(define-fun .def_1566 () Bool (and .def_1563 .def_1565))
(define-fun .def_1569 () Bool (and .def_1566 .def_1568))
(define-fun .def_1572 () Bool (and .def_1569 .def_1571))
(define-fun .def_1575 () Bool (and .def_1572 .def_1574))
(define-fun .def_1578 () Bool (and .def_1575 .def_1577))
(define-fun .def_1581 () Bool (and .def_1578 .def_1580))
(define-fun .def_1584 () Bool (and .def_1581 .def_1583))
(define-fun .def_1587 () Bool (and .def_1584 .def_1586))
(define-fun .def_1590 () Bool (and .def_1587 .def_1589))
(define-fun .def_1593 () Bool (and .def_1590 .def_1592))
(define-fun .def_1596 () Bool (and .def_1593 .def_1595))
(define-fun .def_1599 () Bool (and .def_1596 .def_1598))
(define-fun .def_1602 () Bool (and .def_1599 .def_1601))
(define-fun .def_1605 () Bool (and .def_1602 .def_1604))
(define-fun .def_1625 () Bool (and .def_1605 .def_1624))
(define-fun .def_2011 () Bool (and .def_1625 .def_2010))
(assert .def_2011)
